c Random generated cnf formula, satisfiable: false
p cnf 10 50
6 -10 9 0
1 2 -3 0
5 6 1 0
-8 4 -6 0
-9 -8 4 0
-3 2 -9 0
-10 2 6 0
-8 -6 9 0
4 -8 2 0
1 -9 5 0
-6 -1 3 0
4 8 -9 0
9 -3 -1 0
5 -4 7 0
9 -7 8 0
2 -5 -10 0
6 7 -1 0
-10 9 6 0
-7 -5 4 0
7 -5 -10 0
7 10 5 0
9 7 4 0
8 7 9 0
8 10 -5 0
-8 -2 9 0
7 -1 8 0
-10 2 1 0
5 4 3 0
3 -7 9 0
-9 -1 4 0
4 6 1 0
8 4 10 0
2 5 3 0
-4 -8 6 0
8 -2 -7 0
4 3 7 0
3 -9 -1 0
-8 10 4 0
3 10 5 0
-6 -9 -4 0
1 3 6 0
7 -10 8 0
-10 -4 8 0
4 5 9 0
-5 2 -6 0
-10 -1 -5 0
3 -5 -2 0
-8 10 -4 0
-4 8 1 0
9 -2 -7 0
